(set-logic QF_S)
(declare-fun var0 () String)
(declare-fun var1 () Int)
(declare-fun var2 () String)
(declare-fun var3 () String)
(declare-fun var4 () Int)
(declare-fun var5 () String)
(declare-fun var6 () Int)
(declare-fun var7 () Int)
(assert (>= (str.indexof var0 "/6x" var1) (str.len var2)))
(assert (str.suffixof (str.at var3 var4) (str.replace var5 var3 var0)))
(assert (str.suffixof (str.substr var2 199 var6) (str.replace var2 var3 var5)))
(assert (str.suffixof (str.at var3 var7) (str.substr var5 var4 var7)))
(check-sat)